Route #1: 26 28 43
Route #2: 19 49 42 47 5 11 50 1
Route #3: 8 27 17 12 4 9 39 14 30
Route #4: 13 34 48 29
Route #5: 7 45 23 31 46 18
Route #6: 35 22 38 24 16 44 20
Route #7: 37 32 15 25 10 36
Route #8: 6 21 33
Route #9: 3 41 2 40
Cost 9614935.000000